2207.99 0
0 1 79 82 81 87 90 0
0 74 71 65 70 68 44 43 38 40 39 51 58 0
0 6 100 13 16 5 17 9 3 10 8 7 98 0
0 20 35 30 23 37 66 46 41 99 15 0
0 94 96 95 93 91 86 88 75 0
0 14 97 0
0 52 34 25 69 72 67 73 29 24 64 0
0 57 45 47 49 50 48 42 4 11 12 2 84 89 92 83 78 77 85 76 80 0
0 61 33 19 28 0
0 55 60 27 36 32 31 26 22 21 18 0
0 53 59 56 62 54 63 0
